
 102   30
  10   10   10   10   10   10   10   10   10   10   10   10   10   10   10   10   10   10   10   10   10   10   10   10   10   10   10   10   10   10

   0   0   0   0   0   0   0   0   0   0   0   0   0   0   0   0   0   0   0   0   0   0   0   0   0   0   0   0   0   0   0  29 2 3 4 5 6 7 8 11 12 13 14 15 16 17 18 19 20 21 22 24 25 27 28 29 31 32 38 40 46 
   6   0   0   0   0   1   0   6   0   0   2   2   0   0   0   0   0   0   0   0   0   4   0   0   0   0   0   2   0   0   0  16 89 73 65 62 60 59 58 57 51 48 47 44 43 42 41 10 
  10   0   0   0   0   0   0   0   0   0   0   0   0   0   0   2   1   0   0   0   1   2   0   0   0   0   2   0   0   0   1  10 87 73 60 53 51 50 41 39 34 9 
   2   0   0   0   0   0   0   0   0   0   0   7   0   0   0   0   0   0   0   1   0   0   0   0   0   0   3   0   0   0   0  14 101 92 91 88 72 65 60 55 48 47 45 41 39 23 
   6   0   0   0   0   0   0   0   0   1   0   0   1   0   0   0   0   0   1   0   0   0   0   2   0   0   0   0   1   0   3  15 93 89 88 73 72 71 65 64 62 57 56 54 48 47 26 
   4   0   0   0   0   0   0   0   0   8   0   4   6   0   0   0   0   0   0   0   0   0   0   0   0   0   0   0   0   0   6  13 100 90 65 63 57 55 54 50 49 44 42 35 33 
   3   0   0   0   1   0   0   0   0   7   0   0   0   0   0   0   0   0   0   0   0   6   0   0   1   0   4   0   0   0   0  17 99 95 88 87 72 70 69 65 63 62 60 58 56 55 50 47 30 
   9   1   0   0   0   0   0   0   0   0   0   0   5   1   0   0   0   0   0   0   0   0   0   0  10   0   0   0   0   0   0  19 101 97 95 93 91 90 89 88 73 72 71 68 65 61 57 53 52 48 47 
   5   0   0   0   0   0   0   0   2   0   0   0   0   0   0   0   0   0   0   0   0   0   0   0   0   0   0   0   0   0   0  16 100 98 95 91 89 83 65 64 63 57 56 55 54 48 44 42 
   4   0   0   0   0   0   1   0   4   0   0   0   0   0   0   0   0   0   4   0   0   0   0   0   0   3   0   0   0   0   0  10 101 100 99 92 91 88 70 69 55 23 
   4   0   0   0   0   0   2   0   0   0   0   0   0   0   0   0   0   0   0   0   0   0   0   0   0   0   0   5   9   0   6   9 99 98 89 73 72 64 55 35 34 
   4  10   0   0   0   0   0   0   0   0   2   0   0   0   0   0   0   0   0   7   0   0   0   0   0   0   0   0   0   0   0  17 100 98 96 95 89 88 84 73 72 70 63 62 61 55 50 49 48 
   2   0   1   0   0   0   7   0   0   0  10   0   0   0   2   0   0   0   0   0   0   0   0   0   0   0   0   0   0   0   0   9 101 98 96 87 70 55 48 44 37 
   9   0   0   0   0   7   0   3   0   0   0   0   0   0   0   0   0   0   0   8   0   5   1   0   0   0   0   0   0   0   0  14 96 95 94 93 92 89 87 64 63 62 54 50 48 41 
  10   0   0   0   0   0   0   6   0   0   0   0   0   0   0   0   0   0   0   0   0   0   0   0   0   0   0   0   0   0   0  13 100 94 91 88 84 73 70 68 63 62 55 53 36 
   2   0   0   1   0   0   6   0   0   0   0   0   0   0   0   0   0   0   0   0   0   0   0   0   0   0   0   0   2   0   0  15 100 98 96 95 94 93 91 73 71 65 63 55 52 50 48 
   3   0   0   0   0   0   0   0   0   0   0   0   0   0   0   0   0   0   0   0   0   0   0   0   0   0   0   0   0   0   0  20 99 98 97 96 95 94 93 90 88 87 85 81 72 71 68 66 65 63 61 52 
   3   0   0   0   0   0   9   0   0   6   6   0   0   0   3   0   4   0   0   0   0   0   0   0   0   0   0   0   0   0   0  13 100 99 96 95 91 90 88 76 71 69 55 50 44 
   4   0   0   0   0   0   0   0   0   0   0   0   0   0   0   0   5   0   0   0   0   0   0   0   0   0   0   0   0   0   6  13 96 95 93 92 90 89 88 66 64 52 51 50 48 
   8   0   0   0   0   0   0  10   5   0   0   0   5   0   0   0   0   0   0   0   0   9   0   0   0   0   0   0   0   0   0  19 99 97 96 94 93 92 91 90 88 81 72 70 69 68 66 63 61 57 52 
   4   0   0   0   0   0   6   0   0   0   0   0   0   0   0   0   0   0   0   0   0   0   0   0   0   0   0   0   0   2   0  17 99 97 96 92 89 84 72 70 69 68 67 64 61 57 55 54 53 
  10   0   0   0   0   0   4   0   8   0   0   0   0   0   0   0   7   0   9   0   4   0   8   0   0   8   0   0   0   8   5  17 100 98 97 96 95 93 92 91 83 82 71 70 68 66 62 57 48 
   7   0   0   0   0   0   0   0   0   0   0   0   0   0   0   0   0   0   0   0   0   5   5   0   7   0   0   0   7   0   0  13 96 95 94 93 90 87 71 66 64 61 53 52 50 
  10   0   0   0   0   0   0   0   0   0   0   0   0   7   0   0   0   0   0   0   0   0   0   0   0   3   0   4   0   0   0  12 96 95 94 93 87 84 70 61 53 52 50 48 
   6   0   6   0   0   0   0   0   5   8   0   0   0   0   0   0   0   0   0   0   0   0   0   0   0   4   0   6   0   0   0  21 100 98 97 96 95 94 93 92 90 86 82 81 80 71 70 69 68 67 66 65 61 
   7   0  10   0   3   0   0   0   0   0   0   0   0   0   0   0   0   0   5   0   0   0   0   1   0   2   0   0   0   0   0  15 98 95 94 92 91 90 87 85 84 70 66 63 61 52 50 
   7   0   0   0   0   0   0   0   6   0   0   0   0   0   0   0   0   0   0   0   0   2   0   0   0   0   0   0   0   0   0  14 99 98 96 95 94 92 85 84 76 69 63 55 52 50 
   6   0   0   0   0   0   0   0   0   0   0   0   0   0   0   0   0   3   0   0   0   0   0   0   0   0   9   0   0   0   0  11 96 95 94 71 70 69 67 64 55 53 50 
   5   0   0   0   0   0   0   0   0   0   7   0   0   0  10   0   0   0   0   0   0   0   0   0   0   7   0   0   0   0   5  10 101 100 96 95 94 89 84 53 52 50 
   6   0   0   0   0   0   0   5   0   0   0   0   0   0   0   0   0   0   4   8   0   6   0   6   0   0   0   0   0   0   0   7 100 98 94 90 89 73 41 
   4   0   0   0   7   0   0   0   0   0   0   0   0   0   0   0   0   0   0   0   0   0   0   0   0   0   0   0   0   6   0  16 98 97 96 95 94 92 91 85 82 81 80 71 69 67 65 60 
   1   0   0  10   0   0   0   0   0   0   0   0   0   0   0   0   0   0   0   0   0   0   0   0   0   0   0   0   0   0   0  17 99 98 95 94 86 85 84 82 80 70 69 68 67 66 64 63 61 
   2   7   0   0   0   0   0   5   0   5   4   0   0   0   0   0   0   0   0   0   0   0   0   0   0   0   0   0   0   0   0  12 98 97 96 95 94 88 85 84 82 70 61 48 
   3   0   0   9   0   0   0   0   0   0   0   0   9   0   0   0   0   0   0   0   9  10   0   3   0   0   0   0   0   0   0  15 101 97 96 95 90 82 81 80 78 71 70 68 67 63 61 
   4   0   0   0   0   0   0   0   0   0   9   0   0   0   0   4   3   0   0   3   0   0   4   0   0   0   0   0   0   0   0   4 94 69 68 41 
   5   0   0   0   0   0   0   5   0   0   5   0   0   0   0   0   5   0   0   1   0   0   0   0   0   0   0   0   0   0   0  12 99 98 96 95 85 81 79 77 69 66 61 52 
   7   0   0   0   4   0   0   0   0   0   0   5   0   0   0   0   0   0   0   0   0   0   0   0   0  10   0   0   7   0   8  11 95 94 93 91 84 82 78 73 69 63 50 
   5   0   0   0   0   0   0   0   0  10   0   0   0   7   0   0   0   0   0   0   0   0   0   0   5   0   0   0   4   0   0  17 99 97 96 95 94 93 89 86 85 82 80 76 70 69 67 66 63 
   6   0   0   6   0  10   0   0   9   0   0   0   5   6   0   0   0   0   0   4   8   0   0   0   0   0   0   0   0   0   0  12 96 95 89 86 85 84 82 79 67 66 63 54 
   6   0   0   0   0   0   0   0   0   0   2   0   0   0   0   0   0   0   0   6   0   0   0   0   0   0   0   0   0   0   7  13 99 83 82 81 80 79 78 71 70 69 67 66 64 
   5   0   0   5   0   0   0   0   0   0   0   0   0   0   0   0   0   0   0   0   0   0   0   0   0   0   0   0   0   6   0   8 85 81 79 77 71 66 61 52 
   2   0   0   0   6   7   0   0   0   0   0   0   0   0   0   0   0   0   0   9   7   0   0   0   0   0   0   0   0   0   6  14 101 93 92 86 85 81 80 78 77 76 72 68 67 66 
   8   0   7   0   0   6   0   0   0   4   0   0   0   0   0   0   0   0   0   0   0   0   0   0   0   0   0   0   0   0  10  11 99 98 97 94 84 80 79 78 66 63 61 
  10   0   0   0   0   0   0  10   0   0   0   0   0   0   0   7   0   0   0   0   0   0   7   0   0   0   0   0   0   0   0   8 94 93 85 84 81 77 68 52 
   9   0   0   0   0   0   0   0   0   0   0   0   0   0   0   0   0   0   0   0   0   2   6  10   0   0   4   9   0   0   0  11 95 94 84 83 81 78 76 70 68 67 66 
   4   0   0   0   0   0   0   0   0   0   0   0   0   0   0   0   0   0   7   0   0   0   9   0   0   0   0   0   0   0   0  11 95 93 86 85 82 81 79 77 75 66 61 
   2   0   0   0   0   0   0   0   0   0   0   0   7   0   0   0   0   0   0   0   0  10   0   0   0   0   0   0   0   0   0  11 100 98 96 94 84 81 79 78 76 75 66 
   2   6   6   0   0   0   0   0   0   0   0   0   0   0   0   0   0   0   0   6   0   0   0   0   0   0   0   0   3   0   0   8 99 80 79 78 77 76 69 67 
   8   0   0   0   0   0   0   4   0   0   0   0   0   0  10   6   0   0   0   0   0   0   0   0   0   5   0   0   0   0   6   8 93 91 86 85 78 77 75 66 
   9   0   0   0   0   0   0   0   6   6   0   0   0   0   0   9   0   0   0   0   5   8   0   0   0   0   0   0   0   8   0   7 97 83 81 80 77 74 68 
   6   0   0   0   0   0   0   0   0   0   0   0   0   0   0   0   0   0   0   0   0   0   0   0   0   4   0   0   0   0   0   7 94 85 84 80 79 76 69 
   9   0   0   0   0   0   0   0   0   0   0   0   0   0   5   0   0   0   0   0   0   0   0   7   0   4   0   0   0   6   0   6 86 82 80 78 75 67 
   4   0   0   0   8   0   0   0   9   0   8   0   0   0   0   0   0   0   7   0   0   0   0   0   0   0   0   0   0  10   0   6 98 85 83 78 76 75 
  10   0   0   0   0   4   9   0   0   0   0   0   0   0   0   0   0   0   0   0   0   0   0   0   0   5   6   0   0   0   0   6 81 80 78 76 75 74 
   5   0   0   0   0   0   0   0   0   0   0   0   0   0   0   0   0   0   0   0   0   4   0   0   0  10   0   0   0   2   6   5 86 82 80 75 66 
   6   0   0   0   0   6   6   0   0   0   0   0   0   0   0   0   0   0   0   0   7   0   0   0   0   0   5   0   0   0   0   5 97 96 80 77 66 
  10   0   0   8   6   0   0   0   0   0   0   0   0   0   0   0   0   0   0   0   0   0   0   0   0   0   0   0   0   0   8   5 86 85 77 76 74 
   9   0   0   0   0   0   0   0   0   0   7   0   0   6   0   0   0   0   0   0   0   0   0   0   0   0   7   0   9   7   0   4 94 92 76 75 
   1   0   0   3   0   0   0   0   0   0   0   0   0   0   0   0   0   0   0   0   0   0   0   0   0   0   0   0   0   0   0   4 83 79 78 74 
   6   0   0   9   0   9   0   0   0   0   0   0   0   4   0   0  10   0   3   0   0   0   4   0   0   8   0   0   0   0   0   3 93 79 66 
   7   0   0   0   5   0   0   0   0   0   0   0   0   0   0   5   0   0   0   0   0   0   0   9   0   0   0   0   0   7   0   3 83 76 74 
   8   0   0   7   0   0   0   0   7   0   0   0   7   0   0   0   0   0   0   0   1   0   0   0   0   0   0   0   0   3   0   3 81 78 77 
   4   3   0   0   6   0   0   0   7   0   0   0   0   0   0   4   0   0   0   0   0   0   0   0   0   0   0   0   0   0   0   2 77 75 
   1   0   0   5   0   0  10   0   0   0   8   0   0   7   5   0   0   0  10   7   0  10   0   9   0   0   0   0   0   0   0   2 77 76 
  10   5   0   0   0   0   0   6   4   0   0   0   0   0   0   6   0   0   0   0   0   7   0   0   0   5   9   0   0   0   0   2 78 76 
   9   0   0   0   0   0   0   0   0   0  10   0   0   0   0   0   6   3   0   0   0   0   0   0   0   0   0   0   0   0   0   1 74 
   4   0   0   0   9   0   4   0   0   0   0   0   0   0   0   0   0   6   0  10   0   0   0   0   0   0   0   0   0   0   0   1 74 
  10   0   0   0   5   0   0   0   3   0   0   0   0   0   0   0   0   0   0   0   0   0   0   0   0   0   0   0   0   0   0   1 79 
   7   0   0   0   7   5   0   0   0   0   0   0   0   0   0   0   0   0   0   0   0   0   0   0   0   0   0   0   0   0   0   1 75 
   3   8   0   0   0   0   0   0   0   0   0   0   7   0   0   0   0   0   0   0   0   0   0   0   0   0   0   0   0   0   0   1 77 
   2   0   0   7   0   0   0   0   0   0   0   8   0   7   0   0   8   4   3   0   0   0   8   0   8   0   0   0   0   0   0   1 84 
   4   0   0   0   6   0   0   0   0   0   3   0   0   6   0   0   0  10   0   0   0   0   0   0   0   0   0   0   0   0   0   1 74 
   5   0   0   0   0   0   0   0   5   0   0   0   0   0   0   0   0   0   0   0   0   0   0   0   0   0   6   0   0   0   0   1 92 
   6   0   0   0   0   0  10   0  10   0   0   0   0   0   0   0   0   0   0   0   0   0   0   0   0   0   0   0   0   0   0   1 102
   8   0   0   0   0   0   0   0   0   0   0   0   0   0   0   0   0   7   0   0   0   0   0   0   0   0   0   0   0   0   0   1 102
   6   0   0   0   0   0   6   0   0   0   0   0   0   0   0   0   0   0   8   0   0   0   0   0   0   5   0   0   0   0   0   1 102
  10   0   0   0   0   4   0   0   0   0   0   0   0   0   0   0   5   0   0   8   0   0   0   0   0   0   0  10   0   0   0   1 102
  10   0   0   0   0   0   0   8   0   0   0   0   0   0   0   0   0   0   0   0   0   0   0   0   0   0   0   0   0   0   0   1 102
   2   0   0   0   0   0   0   0   0   0   6   0   0   0   9   0   0  10   0   0   0   0   0   0   0   0  10   0   0   0   0   1 102
   4   0   0   0   0   9   9   0   0   0   0   0   0   0   0   0   0   0   5   0   9   0   0   0   5   7   0   0   0   0   0   1 102
   5   0   0   0   0   0   0   0   0   0   0   0   0   0   0   0   0   0   0   0   0   0   0   0   0   0   0   0   0   0   5   1 102
   3   0   0   0   0   0   0   4   0   0   0   0   0   8   0   0   0   0   0   0   0   8   0   0   0   0   0   0   0   0   0   1 102
  10   0   0   0   0   8   5   0   0   0   0   0   0   0   0   7   0   7   0   0   0   0   0   0   0   0   3   0   0   0   0   1 102
   3   0   0   0   0   0   0   0   0   0   0   0   0   0   0  10   0   0   7   0   0   0   8   8   0   0  10   0   6   0   0   1 102
  10   0   0   6   0   0   0   0   0   0   7   0   9   0   0   0   0   0   7   0   0   0   0   5   0   7   9   0   0   5   0   1 102
   3   0   0   0   0   0   0   0   0   0   0   0   0   0   0   0   0   0   0   0   0   0   0   0   0   7   0   0   0   0   0   1 102
   2   0   0   4   0   0   0   0   0   0   0   0   5   0   0   0   0   7   0   0   0   0   0   0   0   0   0   0   0   0   0   1 102
   8   7   0   0   0   0   0   0   0   0   0   0   5   0   4   0   0   0   0   0   0   0   0   0   0   0   3   0   4   0   0   1 102
   5   0   0   4   0   0   0   5   0   0   0   0   0   0   0   0   0   4   0   0   0   0   0   0   0   0   0   0   0   0   0   1 102
   5   0   0   0   7   5   0   4   0   7   0   0   0   0   0   0   0   0   0   0   0   0   0   0   0   0   0   0   0   6   0   1 102
   2   0   0   0   0   0   0   0   0   0   0   0   0   7   0   0   0   0   0   0   0   0   0   0   0   0   0   0   0   0  10   1 102
   6   0   0   0   0   0   0   0   0   0   5   0   0   0   0   0   0   0   9   0   7   0   0   0   0   0   0   0   0   0   4   1 102
   7   7   7   0   0   0   0   0   0   4   0   0   0   0   0   5   0   0   0   0   0   0   0   0   0  10   5   0   9   0   0   1 102
   4   0   0   0   0   0   0   0   0   0   7   6   0   0   0   0   0   0   0   0   0   0   0   0   0   0   7   0   0   0   0   1 102
  10   0   0   0   0   0   4   0   0   7   0   0   0   0   0   0   0   5   9   0   0   4   0   0   0   4   0   0   0   8   0   1 102
   2   0   5   0   0   0   4   5   0   0   0   0   0   0   0   0   0   0   0   0   8   0   0   0   0   0   0   0   8   0   0   1 102
   9   0   0   0   0   0   0   0   0   5   0   0   0   0   0   7   0   0   4   6   0   0   0   0   6   0   6   0   0   0   0   1 102
   8   0   0   0  10   0   0   0   0   0   0   0   0   0   0   0   0   0   0   0   0   0   0   0   0   0   6   0   0   0   0   1 102
   4   0   0   0   0   5   0   0   0   0   0  10   0   0   0   0  10   0   0   0   0   0   0   0   0   0   0   0   0   0   0   1 102
   4   0   0   0   0   4   0  10   0   0   0   0   0   0   0   0   0   0   0   0   0   0   0   0   0   8   0   0   7   0   0   1 102
   7   0   0   0   0   0   0   0   0   0   0   0   7   0   0   0   8   0   0   0   0   0   0   0   0   0   0   0   8   0   0   1 102
   0   0   0   0   0   0   0   0   0   0   0   0   0   0   0   0   0   0   0   0   0   0   0   0   0   0   0   0   0   0   0   0 
